u120_13
150 120 49 51
71 0
26 0
66 1
84 2
76 1
95 3
80 4
50 0
53 2
30 3
82 5
38 4
45 5
99 6
51 7
98 7
100 8
88 9
81 10
77 11
99 12
97 13
31 4
54 9
47 6
45 8
36 10
96 14
96 15
74 16
77 17
98 18
69 11
22 3
40 12
39 13
81 19
90 20
73 16
84 21
53 14
73 22
81 23
51 15
38 17
43 18
64 19
28 10
83 24
28 17
66 22
22 5
56 20
61 21
72 25
69 25
55 23
20 24
50 26
52 26
95 27
89 28
32 24
60 28
29 26
90 29
20 27
90 30
41 29
37 30
95 31
20 27
84 32
33 31
28 32
40 33
91 33
39 34
63 34
66 35
29 32
74 35
97 36
41 34
81 37
53 37
22 30
32 36
91 38
61 39
33 38
91 40
55 39
56 40
57 41
44 41
60 42
55 42
92 43
39 41
38 43
100 44
30 39
65 45
22 38
78 45
84 46
32 42
51 46
52 47
47 44
62 47
63 48
25 47
42 48
59 49
24 48
88 49
61 50
71 50